1 1510 7
2 1384 7
3 1280 7
7 1279 7
11 1263 7
14 1247 7
23 1239 7
38 1226 7
42 1221 7
58 1191 7
439 1144 7



1 1514 7
2 1347 7
3 1311 7
8 1282 7
9 1263 7
20 1259 7
29 1251 7
37 1239 7
42 1221 7
58 1218 7
110 1215 7
159 1211 7
170 1204 7
177 1180 7
355 1170 7



1 1505 7
2 1337 7
3 1316 7
4 1306 7
6 1294 7
7 1240 7
8 1222 7
87 1218 7
96 1209 7
240 1201 7
413 1159 7



1 1546 7
2 1331 7
3 1285 7
4 1262 7
6 1251 7
8 1228 7
32 1180 7
450 1163 7



1 1515 8
2 1297 7
4 1265 7
11 1242 7
13 1236 7
20 1226 7
30 1220 7
34 1212 7
61 1200 7
471 1174 7



